benchmarks/bfuzz0/213524278230622524918776126112525718916.smt2
(set-logic QF_FP)
(declare-const x0 (_ FloatingPoint 11 53))
(declare-const x1 (_ FloatingPoint 11 53))
(declare-const x2 (_ FloatingPoint 11 53))
(declare-const x3 (_ FloatingPoint 11 53))
(declare-const x4 (_ FloatingPoint 11 53))
(declare-const x5 (_ FloatingPoint 11 53))
(declare-const x6 (_ FloatingPoint 11 53))
(declare-const x7 (_ FloatingPoint 11 53))
(assert (fp.leq (fp.sub RNE x5 x1) (fp.div RNE x6 x2)))
(assert (fp.gt (fp.neg x6) (fp.add RNE x0 x3)))
(assert (fp.geq (fp.mul RNE x0 x4) (fp.sub RNE x4 x1)))
(assert (fp.eq (fp.div RNE x7 x1) (fp.neg x6)))
(assert (fp.eq (fp.mul RNE x2 x0) (fp.mul RNE x7 x4)))
(assert (fp.geq (fp.mul RNE x6 x7) (fp.sub RNE x0 x2)))
(assert (fp.eq (fp.neg x3) (fp.mul RNE x1 x4)))
(assert (fp.eq (fp.mul RNE x7 x1) (fp.neg x3)))
(assert (fp.eq (fp.div RNE x6 x4) (fp.div RNE x6 x6)))
(assert (fp.geq (fp.add RNE x1 x7) (fp.div RNE x4 x3)))
(assert (fp.gt (fp.div RNE x5 x4) (fp.mul RNE x2 x0)))
(assert (fp.lt (fp.div RNE x2 x5) (fp.sub RNE x6 x5)))
(check-sat)
