db/data/213524278230622524918776126112525718916.z3.out
-------------------
2500.116313185
